c --- [ banner ] -------------------------------------------------------------
c 
c CaDiCaL Radically Simplified CDCL SAT Solver
c Copyright (c) 2016-2021 A. Biere, M. Fleury, N. Froleyks
c 
c Version 1.5.2 9c38a080b32c28d805e8e6ca21849856b0cda605
c g++ (Ubuntu 7.5.0-3ubuntu1~18.04) 7.5.0 -Wall -Wextra -O3 -DNDEBUG
c Wed Feb 16 23:15:36 EST 2022 Linux fac-vanhoeve01 5.4.0-99-generic x86_64
c 
c --- [ limit ] --------------------------------------------------------------
c 
c setting time limit to 600 seconds real time (due to '-t 600')
c setting conflict limit to 1000000000 conflicts (due to '1000000000')
c 
c --- [ parsing input ] ------------------------------------------------------
c 
c reading DIMACS file from 'ddfwcnfs/wap02a.col_40.cnf'
c opening file to read 'ddfwcnfs/wap02a.col_40.cnf'
c found 'p cnf 98560 4253384' header
c parsed 4253384 clauses in 2.55 seconds process time
c closing file 'ddfwcnfs/wap02a.col_40.cnf'
c after reading 68126656 bytes 65.0 MB
c 
c --- [ options ] ------------------------------------------------------------
c 
c all options are set to their default value
c 
c --- [ solving ] ------------------------------------------------------------
c 
c time measured in process time since initialization
c 
c  seconds   reductions  redundant   irredundant
c          MB    restarts       trail        variables
c           level   conflicts       glue          remaining
c 
c *  2.55 376  0 0   0    0    0  0% 0 4251784 96960 98%
c {  2.58 378  0 0   0    0    0  0% 0 4251784 96960 98%
c -  3.41 378 39 1   0  300  148  4% 36 4251784 96960 98%
c }  3.54 378 40 1   0 1000  634  4% 36 4251784 96960 98%
c [  3.54 378  0 1   0 1000  634  0% 0 4251784 96960 98%
c O  3.54 378 50 1   0 1002  636  4% 28 4251784 96960 98%
c -  5.76 476 48 2   0 1883 1096  4% 35 4251784 96960 98%
c ]  5.86 476 45 2   1 3003 1817  4% 37 4251784 96960 98%
c {  5.86 476 40 2   1 3003 1817  4% 36 4251784 96960 98%
c F  5.86 476 40 2   1 3004 1818  4% 36 4251784 96960 98%
c -  7.47 476 53 3   1 4248 1876  5% 31 4251784 96960 98%
c # 11.18 472 50 3   1 6007 3241  5% 30 4251784 96960 98%
c } 11.27 472 49 3   3 7005 3966  6% 30 4251784 96960 98%
c [ 11.27 472 45 3   3 7005 3966  4% 37 4251784 96960 98%
c - 12.85 472 44 4   4 7404 2930  4% 36 4251784 96960 98%
c I 13.11 472 42 4   5 10008 4701  4% 36 4251784 96960 98%
c s 14.78 488 822 4   6 10911 5337  6% 38 4251784 96960 98%
c e 24.46 488 822 4   6 10911 2842  6% 38 3774349 90415 92%
c s 26.19 505 822 4   6 10911 2831  6% 38 3774349 90415 92%
c ^ 27.07 505 822 4   6 10911 2831  6% 38 3774349 90415 92%
c 
c  seconds     reductions   redundant    irredundant
c          MB      restarts        trail         variables
c            level     conflicts       glue           remaining
c 
c - 28.89 515 1377 5   7 11346 1638  7% 39 3774349 90415 92%
c ] 33.06 544 8568 5   8 15006 4380 22% 47 3774349 90415 92%
c { 33.06 544 49 5   8 15006 4380  6% 30 3774349 90415 92%
c B 33.09 544 50 5   8 15010 4384  6% 30 3774349 90415 92%
c - 34.61 545 67 6 260 15985 3910  6% 31 3774349 90415 92%
c W 36.57 545 75 6 1307 21011 7719  6% 34 3774349 90415 92%
c - 38.16 545 81 7 1349 21397 5222  6% 35 3774349 90415 92%
c - 40.19 545 71 8 1361 27582 6286  6% 35 3774349 90415 92%
c F 40.24 545 71 8 1361 28013 6600  6% 35 3774349 90415 92%
c } 44.23 545 65 8 1361 31007 8628  6% 34 3774349 90415 92%
c [ 44.23 545 8568 8 1361 31007 8628 22% 47 3774349 90415 92%
c s 44.64 545 7448 8 1361 32446 9523 20% 46 3774349 90415 92%
c w 47.83 545 7448 8 1361 32446 9513 20% 46 3774349 90415 92%
c s 52.52 545 7448 8 1361 32446 9267 20% 46 3774349 90415 92%
c ^ 53.32 545 7448 8 1361 32446 9267 20% 46 3774349 90415 92%
c - 55.05 545 6238 9 1363 34541 7738 18% 45 3774349 90415 92%
c B 55.18 545 5590 9 1364 36014 8583 16% 44 3774349 90415 92%
c - 58.04 547 8294 10 1368 42271 8203 26% 64 3774349 90415 92%
c W 60.03 547 7286 10 1368 45016 10161 25% 68 3774349 90415 92%
c - 65.89 547 5777 11 1369 50774 8599 21% 68 3774349 90415 92%
c 
c  seconds     reductions      redundant    irredundant
c          MB       restarts          trail         variables
c            level       conflicts        glue           remaining
c 
c O 66.65 547 6109 11 1370 55021 11951 23% 72 3774349 90415 92%
c - 68.52 547 5190 12 1374 60050 9029 20% 67 3774349 90415 92%
c ] 68.76 547 4755 12 1376 63008 10900 19% 65 3774349 90415 92%
c { 68.76 547 65 12 1376 63008 10900  6% 34 3774349 90415 92%
c s 69.13 547 67 12 1376 64748 12075  6% 33 3774349 90415 92%
c w 72.34 547 67 12 1376 64748 12074  6% 33 3774349 90415 92%
c s 77.08 547 67 12 1376 64748 12052  6% 33 3774349 90415 92%
c ^ 77.88 547 67 12 1376 64748 12052  6% 33 3774349 90415 92%
c B 78.01 547 65 12 1376 66022 12842  6% 33 3774349 90415 92%
c - 80.11 546 64 13 1511 70100 8212  6% 33 3774349 90415 92%
c W 86.68 546 61 13 1668 78028 12635  6% 34 3774349 90415 92%
c - 88.49 545 61 14 1722 80922 8438  6% 34 3774349 90415 92%
c # 89.84 545 60 14 2068 91030 15455  6% 34 3774349 90415 92%
c - 91.50 546 60 15 2078 92517 10314  6% 34 3774349 90415 92%
c - 94.40 546 54 16 2100 104885 10209  6% 34 3774349 90415 92%
c B 97.92 546 54 16 2100 105034 10300  6% 34 3774349 90415 92%
c s 98.78 546 58 16 2766 107819 11400  7% 35 3774349 90415 92%
c w 101.96 546 58 16 2766 107819 11391  7% 35 3774349 90415 92%
c s 106.74 546 58 16 2766 107819 11181  7% 35 3774349 90415 92%
c ^ 107.54 546 58 16 2766 107819 11181  7% 35 3774349 90415 92%
c 
c  seconds    reductions       redundant    irredundant
c           MB     restarts           trail         variables
c            level      conflicts         glue           remaining
c 
c - 110.53 547 78 17 5175 118027 12028  7% 39 3774349 90415 92%
c W 113.55 547 76 17 5175 120037 13291  7% 39 3774349 90415 92%
c } 114.22 547 72 17 5175 127010 18092  7% 39 3774349 90415 92%
c [ 114.22 547 4755 17 5175 127010 18092 19% 65 3774349 90415 92%
c - 116.26 546 4198 18 5177 131941 12565 18% 63 3774349 90415 92%
c B 116.71 546 3781 18 5180 136039 14885 17% 60 3774349 90415 92%
c - 124.13 550 6575 19 5183 146630 14674 25% 78 3774349 90415 92%
c W 128.34 550 6698 19 5184 153043 19939 28% 86 3774349 90415 92%
c s 129.69 550 6223 19 5184 161655 26231 29% 83 3774349 90415 92%
c w 132.97 550 6223 19 5184 161655 26230 29% 83 3774349 90415 92%
c s 137.94 550 6223 19 5184 161655 26227 29% 83 3774349 90415 92%
c ^ 138.80 550 6223 19 5184 161655 26227 29% 83 3774349 90415 92%
c - 140.50 551 6175 20 5184 162091 16108 29% 83 3774349 90415 92%
c I 141.75 551 5383 20 5187 171044 22935 26% 81 3774349 90415 92%
c - 144.47 550 5318 21 5191 178325 16941 26% 85 3774349 90415 92%
c B 151.33 550 5054 21 5198 190045 26651 26% 89 3774349 90415 92%
c - 153.77 552 4681 22 5199 195333 18830 25% 87 3774349 90415 92%
c W 159.00 552 3813 22 5206 210046 29362 22% 80 3774349 90415 92%
c - 160.87 548 3657 23 5206 213115 17814 22% 79 3774349 90415 92%
c s 166.95 548 3296 23 5214 226258 27074 20% 74 3774349 90415 92%
c 
c  seconds      reductions       redundant    irredundant
c           MB       restarts           trail         variables
c             level       conflicts         glue           remaining
c 
c w 170.26 548 3296 23 5214 226258 27074 20% 74 3774349 90415 92%
c s 175.39 548 3296 23 5214 226258 26753 20% 74 3774349 90415 92%
c O 177.21 548 3111 23 5214 231048 30117 20% 74 3774349 90415 92%
c - 178.92 549 3087 24 5214 231668 18800 20% 74 3774349 90415 92%
c - 182.94 549 2437 25 5216 250995 19084 18% 71 3774349 90415 92%
c B 183.26 549 2378 25 5216 253052 20603 17% 71 3774349 90415 92%
c ] 183.93 549 3019 25 5216 255012 22280 18% 75 3774349 90415 92%
c { 183.93 549 72 25 5216 255012 22280  7% 39 3774349 90415 92%
c - 186.99 549 65 26 5237 271097 19862  7% 38 3774349 90415 92%
c F 191.35 549 63 26 5237 276057 23245  7% 38 3774349 90415 92%
c - 194.56 548 62 27 5237 291972 22776  6% 36 3774349 90415 92%
c B 195.57 548 61 27 5237 300059 29704  6% 35 3774349 90415 92%
c - 198.61 549 61 28 5508 313618 24429  6% 36 3774349 90415 92%
c W 204.64 549 60 28 5852 325060 33527  6% 36 3774349 90415 92%
c - 211.83 549 60 29 6153 336036 23282  6% 36 3774349 90415 92%
c # 213.36 549 57 29 6280 351062 31588  6% 36 3774349 90415 92%
c - 215.72 548 55 30 6282 359227 20575  6% 36 3774349 90415 92%
c B 217.90 548 52 30 6365 378065 33000  6% 36 3774349 90415 92%
c - 220.04 548 52 31 6750 383192 20773  6% 36 3774349 90415 92%
c W 232.94 548 60 31 7204 406067 33996  6% 37 3774349 90415 92%
c 
c  seconds    reductions       redundant    irredundant
c           MB     restarts           trail         variables
c            level      conflicts         glue           remaining
c 
c - 234.64 548 61 32 7217 407929 19604  6% 37 3774349 90415 92%
c - 239.21 548 68 33 7475 433440 20166  6% 37 3774349 90415 92%
c F 239.42 548 68 33 7479 435068 21017  6% 37 3774349 90415 92%
c - 247.70 548 62 34 7590 459729 21158  7% 38 3774349 90415 92%
c B 248.34 548 61 34 7616 465071 24346  7% 38 3774349 90415 92%
c - 252.84 548 64 35 13121 486785 16254  7% 43 3774349 90415 92%
c W 260.78 548 64 35 15453 496072 19049  7% 44 3774349 90415 92%
c } 262.81 548 83 35 15472 511012 30474  7% 44 3774349 90415 92%
c [ 262.81 548 3019 35 15472 511012 30474 18% 75 3774349 90415 92%
c - 265.39 550 3196 36 15472 514618 21384 19% 77 3774349 90415 92%
c W 279.29 550 3631 36 15472 528077 31004 21% 80 3774349 90415 92%
c - 283.30 555 3075 37 15475 543221 27075 19% 80 3774349 90415 92%
c I 286.45 555 2536 37 15486 561078 40318 17% 79 3774349 90415 92%
c - 290.59 560 5994 38 15488 572596 29461 21% 99 3774349 90415 92%
c B 294.75 560 5683 38 15501 595087 46622 21% 99 3774349 90415 92%
c - 301.96 556 5751 39 15502 602745 30607 22% 97 3774349 90415 92%
c W 315.97 556 4389 39 15509 630088 53164 21% 93 3774349 90415 92%
c - 318.40 557 4498 40 15510 633667 33704 22% 93 3774349 90415 92%
c s 318.83 557 4498 40 15510 633667 33592 22% 93 3774349 90415 92%
c w 322.50 557 4498 40 15510 633667 33579 22% 93 3774349 90415 92%
c 
c  seconds      reductions        redundant    irredundant
c           MB        restarts           trail         variables
c             level        conflicts         glue           remaining
c 
c - 329.40 555 4247 41 15525 665363 36262 23% 86 3774349 90415 92%
c O 329.47 555 4216 41 15525 666089 36757 23% 86 3774349 90415 92%
c - 338.29 550 3055 42 15534 697831 32563 18% 72 3774349 90415 92%
c B 338.96 550 2898 42 15534 703093 36261 17% 70 3774349 90415 92%
c - 343.96 556 3373 43 15535 731072 31919 24% 69 3774349 90415 92%
c W 354.43 556 3806 43 15536 741095 39154 26% 70 3774349 90415 92%
c - 363.98 560 5753 44 15536 765087 35486 29% 85 3774349 90415 92%
c I 366.30 560 4981 44 15536 780096 46456 26% 90 3774349 90415 92%
c - 370.10 562 8127 45 15536 799874 33002 28% 113 3774349 90415 92%
c B 374.44 562 9211 45 15546 820099 48564 31% 119 3774349 90415 92%
c - 378.87 562 7949 46 15551 835437 36664 29% 115 3774349 90415 92%
c W 395.25 562 6362 46 15565 861100 54215 25% 100 3774349 90415 92%
c - 399.52 557 6008 47 15567 871770 36716 24% 106 3774349 90415 92%
c O 404.24 557 5625 47 15577 903102 60343 24% 98 3774349 90415 92%
c - 406.48 556 5313 48 15581 908877 36907 23% 95 3774349 90415 92%
c B 411.99 556 3686 48 15597 946105 64139 17% 77 3774349 90415 92%
c - 413.92 553 3900 49 15597 946756 37610 18% 81 3774349 90415 92%
c - 443.71 585 3836 50 15599 985410 44711 24% 119 3774349 90415 92%
c W 458.34 585 3686 50 15599 990107 48984 24% 120 3774349 90415 92%
c ] 465.28 585 3630 50 15612 1023014 74683 25% 110 3774349 90415 92%
c 
c  seconds    reductions         redundant    irredundant
c           MB      restarts            trail         variables
c            level        conflicts         glue           remaining
c 
c { 465.28 585 83 50 15612 1023014 74683  7% 44 3774349 90415 92%
c - 467.18 561 83 51 15615 1024836 42905  7% 44 3774349 90415 92%
c # 468.39 561 79 51 15642 1035108 49903  7% 44 3774349 90415 92%
c - 477.79 552 70 52 15668 1065034 39277  6% 43 3774349 90415 92%
c s 478.22 552 70 52 15668 1065034 38834  6% 43 3774349 90415 92%
c w 482.26 552 70 52 15668 1065034 38820  6% 43 3774349 90415 92%
c B 485.03 552 66 52 15724 1081110 49173  6% 42 3774349 90415 92%
c - 490.52 554 115 53 20372 1106005 42364  6% 44 3774349 90415 92%
c W 506.85 554 147 53 23837 1128112 59861  6% 46 3774349 90415 92%
c - 511.44 556 170 54 26505 1147749 45279  6% 47 3774349 90415 92%
c F 519.70 556 195 54 27788 1176114 68271  7% 47 3774349 90415 92%
c - 523.01 555 175 55 27792 1190266 46149  7% 46 3774349 90415 92%
c B 529.20 555 137 55 27792 1225120 75184  7% 44 3774349 90415 92%
c - 532.06 554 134 56 27850 1233557 47391  7% 44 3774349 90415 92%
c W 555.67 554 103 56 27853 1275121 76204  7% 43 3774349 90415 92%
c - 557.61 553 102 57 27853 1277622 42821  7% 43 3774349 90415 92%
c - 565.29 553 81 58 27860 1322459 44969  7% 42 3774349 90415 92%
c # 565.77 553 79 58 27910 1326124 47547  7% 42 3774349 90415 92%
c - 572.44 554 67 59 27913 1368069 49042  7% 41 3774349 90415 92%
c B 573.90 554 65 59 27918 1378125 57593  7% 41 3774349 90415 92%
c 
c  seconds    reductions         redundant    irredundant
c           MB      restarts            trail         variables
c            level        conflicts         glue           remaining
c 
c - 583.27 554 68 60 28625 1414453 48667  7% 41 3774349 90415 92%
c } 600.36 554 64 60 28675 1431125 59217  7% 40 3774349 90415 92%
c ? 600.37 554 64 60 28675 1431125 59217  7% 40 3774349 90415 92%
c 
c --- [ result ] -------------------------------------------------------------
c 
c UNKNOWN
c 
c --- [ run-time profiling ] -------------------------------------------------
c 
c process time taken by individual solving procedures
c (percentage relative to process time for solving)
c 
c       452.32   75.66% search
c       185.59   31.04% stable
c       146.26   24.47% unstable
c       145.50   24.34% simplify
c       120.43   20.14% walk
c        36.94    6.18% ternary
c        28.86    4.83% elim
c        20.28    3.39% vivify
c        16.13    2.70% probe
c         5.59    0.93% subsume
c         2.55    0.43% parse
c         0.03    0.01% lucky
c   =================================
c       597.82   99.58% solve
c 
c last line shows process time for solving
c (percentage relative to total process time)
c 
c --- [ statistics ] ---------------------------------------------------------
c 
c chronological:            244955        17.12 %  of conflicts
c conflicts:               1431125      2393.91    per second
c decisions:               4438748      7424.90    per second
c eliminated:                 6545         6.64 %  of all variables
c fixed:                      1600         1.62 %  of all variables
c learned:                 1416808        99.00 %  per conflict
c learned_lits:          197713237       100.00 %  learned literals
c minimized:                     0         0.00 %  learned literals
c shrunken:               75392116        38.13 %  learned literals
c minishrunken:            6016350         3.04 %  learned literals
c propagations:          436235823         0.73 M  per second
c reduced:                  979020        68.41 %  per conflict
c rephased:                     53     27002.36    interval
c restarts:                  28675        49.91    interval
c stabilizing:                   5        47.66 %  of conflicts
c subsumed:                 376028         3.26 %  of all clauses
c strengthened:              13544         0.12 %  of all clauses
c vivified:                     67         0.00 %  of all clauses
c walked:                       17     84183.82    interval
c weakened:                 576952         3.04    average size
c 
c seconds are measured in process time for solving
c 
c --- [ resources ] ----------------------------------------------------------
c 
c total process time since initialization:       600.37    seconds
c total real time since initialization:          600.42    seconds
c maximum resident set size of process:          701.18    MB
c 
c --- [ shutting down ] ------------------------------------------------------
c 
c exit 0
